p cnf 86 288
c p weight -33 1 0
c p weight 33 -1 0
c p weight 37 6.12323399573676603586882014729198302312846062338790031898128063403419218957424163818359375E-17 0
c p weight -37 1 0
c p weight 38 1 0
c p weight -38 1 0
c p weight -35 1 0
c p weight 35 -1 0
c p weight -39 1 0
c p weight 39 -1 0
c p weight -41 1 0
c p weight 41 -1 0
c p weight -44 1 0
c p weight 44 -1 0
c p weight -47 1 0
c p weight 47 -1 0
c p weight -50 1 0
c p weight 50 -1 0
c p weight -53 1 0
c p weight 53 -1 0
c p weight -56 1 0
c p weight 56 -1 0
c p weight -59 1 0
c p weight 59 -1 0
c p weight -62 1 0
c p weight 62 -1 0
c p weight -65 1 0
c p weight 65 -1 0
c p weight -68 1 0
c p weight 68 -1 0
c p weight -71 1 0
c p weight 71 -1 0
c p weight -74 1 0
c p weight 74 -1 0
c p weight -77 1 0
c p weight 77 -1 0
c p weight -80 1 0
c p weight 80 -1 0
c p weight -83 1 0
c p weight 83 -1 0
c p weight 86 0.5 0
c p weight -86 1 0
86 0
-31 0
-29 0
-27 0
-25 0
-23 0
-21 0
-19 0
-17 0
-15 0
-13 0
-11 0
-9 0
-7 0
-5 0
-3 0
-1 0
-33 31 0
-33 32 0
33 -31 -32 0
34 31 -32 0
34 -31 32 0
-34 31 32 0
-34 -31 -32 0
-35 36 0
-35 34 0
-35 -31 0
35 -36 31 -34 0
36 -31 34 0
-36 31 34 0
-37 34 0
36 -37 -31 0
-36 -37 31 0
36 37 31 -34 0
-36 37 -31 -34 0
-38 34 0
36 -38 31 0
-36 -38 -31 0
36 38 -31 -34 0
-36 38 31 -34 0
-39 36 0
-39 34 0
39 -36 -34 0
40 36 -34 0
40 -36 34 0
-40 36 34 0
-40 -36 -34 0
-41 36 0
-41 30 0
-41 29 -40 0
-41 -29 40 0
41 -36 29 40 -30 0
41 -36 -29 -40 -30 0
43 36 -29 0
43 -36 29 0
-43 36 29 0
-43 -36 -29 0
42 40 -30 0
42 -40 30 0
-42 40 30 0
-42 -40 -30 0
-44 43 0
-44 28 0
-44 27 -30 0
-44 -27 30 0
44 -43 27 30 -28 0
44 -43 -27 -30 -28 0
46 43 -27 0
46 -43 27 0
-46 43 27 0
-46 -43 -27 0
45 30 -28 0
45 -30 28 0
-45 30 28 0
-45 -30 -28 0
-47 46 0
-47 26 0
-47 25 -28 0
-47 -25 28 0
47 -46 25 28 -26 0
47 -46 -25 -28 -26 0
49 46 -25 0
49 -46 25 0
-49 46 25 0
-49 -46 -25 0
48 28 -26 0
48 -28 26 0
-48 28 26 0
-48 -28 -26 0
-50 49 0
-50 24 0
-50 23 -26 0
-50 -23 26 0
50 -49 23 26 -24 0
50 -49 -23 -26 -24 0
52 49 -23 0
52 -49 23 0
-52 49 23 0
-52 -49 -23 0
51 26 -24 0
51 -26 24 0
-51 26 24 0
-51 -26 -24 0
-53 52 0
-53 22 0
-53 21 -24 0
-53 -21 24 0
53 -52 21 24 -22 0
53 -52 -21 -24 -22 0
55 52 -21 0
55 -52 21 0
-55 52 21 0
-55 -52 -21 0
54 24 -22 0
54 -24 22 0
-54 24 22 0
-54 -24 -22 0
-56 55 0
-56 20 0
-56 19 -22 0
-56 -19 22 0
56 -55 19 22 -20 0
56 -55 -19 -22 -20 0
58 55 -19 0
58 -55 19 0
-58 55 19 0
-58 -55 -19 0
57 22 -20 0
57 -22 20 0
-57 22 20 0
-57 -22 -20 0
-59 58 0
-59 18 0
-59 17 -20 0
-59 -17 20 0
59 -58 17 20 -18 0
59 -58 -17 -20 -18 0
61 58 -17 0
61 -58 17 0
-61 58 17 0
-61 -58 -17 0
60 20 -18 0
60 -20 18 0
-60 20 18 0
-60 -20 -18 0
-62 61 0
-62 16 0
-62 15 -18 0
-62 -15 18 0
62 -61 15 18 -16 0
62 -61 -15 -18 -16 0
64 61 -15 0
64 -61 15 0
-64 61 15 0
-64 -61 -15 0
63 18 -16 0
63 -18 16 0
-63 18 16 0
-63 -18 -16 0
-65 64 0
-65 14 0
-65 13 -16 0
-65 -13 16 0
65 -64 13 16 -14 0
65 -64 -13 -16 -14 0
67 64 -13 0
67 -64 13 0
-67 64 13 0
-67 -64 -13 0
66 16 -14 0
66 -16 14 0
-66 16 14 0
-66 -16 -14 0
-68 67 0
-68 12 0
-68 11 -14 0
-68 -11 14 0
68 -67 11 14 -12 0
68 -67 -11 -14 -12 0
70 67 -11 0
70 -67 11 0
-70 67 11 0
-70 -67 -11 0
69 14 -12 0
69 -14 12 0
-69 14 12 0
-69 -14 -12 0
-71 70 0
-71 10 0
-71 9 -12 0
-71 -9 12 0
71 -70 9 12 -10 0
71 -70 -9 -12 -10 0
73 70 -9 0
73 -70 9 0
-73 70 9 0
-73 -70 -9 0
72 12 -10 0
72 -12 10 0
-72 12 10 0
-72 -12 -10 0
-74 73 0
-74 8 0
-74 7 -10 0
-74 -7 10 0
74 -73 7 10 -8 0
74 -73 -7 -10 -8 0
76 73 -7 0
76 -73 7 0
-76 73 7 0
-76 -73 -7 0
75 10 -8 0
75 -10 8 0
-75 10 8 0
-75 -10 -8 0
-77 76 0
-77 6 0
-77 5 -8 0
-77 -5 8 0
77 -76 5 8 -6 0
77 -76 -5 -8 -6 0
79 76 -5 0
79 -76 5 0
-79 76 5 0
-79 -76 -5 0
78 8 -6 0
78 -8 6 0
-78 8 6 0
-78 -8 -6 0
-80 79 0
-80 4 0
-80 3 -6 0
-80 -3 6 0
80 -79 3 6 -4 0
80 -79 -3 -6 -4 0
82 79 -3 0
82 -79 3 0
-82 79 3 0
-82 -79 -3 0
81 6 -4 0
81 -6 4 0
-81 6 4 0
-81 -6 -4 0
-83 82 0
-83 2 0
-83 1 -4 0
-83 -1 4 0
83 -82 1 4 -2 0
83 -82 -1 -4 -2 0
85 82 -1 0
85 -82 1 0
-85 82 1 0
-85 -82 -1 0
84 4 -2 0
84 -4 2 0
-84 4 2 0
-84 -4 -2 0
-85 0
-82 0
-84 0
-79 0
-81 0
-76 0
-78 0
-73 0
-75 0
-70 0
-72 0
-67 0
-69 0
-64 0
-66 0
-61 0
-63 0
-58 0
-60 0
-55 0
-57 0
-52 0
-54 0
-49 0
-51 0
-46 0
-48 0
-43 0
-45 0
-36 0
-42 0
